NAME : X-n157-80-k11
COMMENT : "Generated by Queiroga, Frota, Sadykov, Subramanian, Uchoa and Vidal (2019)" 
TYPE : CVRP
DIMENSION : 157
EDGE_WEIGHT_TYPE : EUC_2D
CAPACITY : 12
NODE_COORD_SECTION
1 -1 769 259
2 0 91 377
3 0 108 338
4 0 816 567
5 0 725 520
6 0 117 357
7 0 766 559
8 0 90 417
9 0 255 430
10 0 63 384
11 0 35 276
12 0 122 318
13 0 85 322
14 0 267 348
15 0 937 546
16 0 865 461
17 0 863 547
18 0 724 431
19 0 148 144
20 0 243 571
21 0 871 512
22 0 782 596
23 0 77 272
24 0 776 650
25 0 166 371
26 0 69 239
27 0 972 607
28 0 320 521
29 0 91 434
30 0 20 305
31 0 81 271
32 0 776 669
33 0 830 553
34 0 148 243
35 0 160 202
36 0 741 527
37 0 877 561
38 0 587 551
39 0 808 435
40 0 26 278
41 0 58 394
42 0 755 444
43 0 817 557
44 0 165 367
45 0 216 510
46 0 124 330
47 0 96 587
48 0 132 369
49 0 163 234
50 0 915 492
51 0 753 657
52 0 161 319
53 0 37 227
54 0 898 747
55 0 770 524
56 0 745 582
57 0 695 469
58 0 124 355
59 0 11 283
60 0 258 406
61 0 72 335
62 0 713 399
63 0 866 626
64 0 214 344
65 0 213 349
66 0 864 577
67 0 98 440
68 0 701 512
69 0 884 559
70 0 842 518
71 0 125 379
72 0 352 410
73 0 206 228
74 0 825 592
75 0 93 252
76 0 863 511
77 0 98 347
78 0 115 326
79 0 71 392
80 0 96 248
81 0 65 404
82 0 75 342
83 0 140 300
84 0 129 340
85 0 129 273
86 0 846 696
87 0 109 463
88 0 863 586
89 0 139 356
90 0 77 351
91 0 154 322
92 0 231 323
93 0 115 394
94 0 844 558
95 0 98 454
96 0 739 568
97 0 179 443
98 0 862 618
99 0 764 764
100 0 844 554
101 0 174 319
102 0 703 319
103 0 151 453
104 0 863 569
105 0 72 473
106 0 632 575
107 0 823 578
108 0 26 42
109 0 47 381
110 0 71 336
111 0 754 484
112 0 137 465
113 0 80 355
114 0 172 296
115 0 28 310
116 0 754 579
117 0 531 662
118 0 87 382
119 0 866 481
120 0 93 337
121 0 942 567
122 0 788 567
123 0 824 451
124 0 926 901
125 0 182 500
126 0 98 384
127 1 104 370
128 1 48 462
129 1 952 629
130 1 239 324
131 1 138 516
132 1 747 605
133 1 136 460
134 1 748 624
135 1 43 268
136 1 792 597
137 1 95 352
138 1 109 413
139 1 67 224
140 1 104 386
141 1 817 672
142 1 183 360
143 1 922 652
144 1 779 419
145 1 863 721
146 1 40 456
147 1 66 395
148 1 862 465
149 1 383 357
150 1 307 434
151 1 233 421
152 1 329 280
153 1 623 554
154 1 103 349
155 1 736 688
156 1 75 266
157 1 174 406
DEMAND_SECTION
1 0
2 1
3 1
4 1
5 1
6 1
7 1
8 1
9 1
10 1
11 1
12 1
13 1
14 1
15 1
16 1
17 1
18 1
19 1
20 1
21 1
22 1
23 1
24 1
25 1
26 1
27 1
28 1
29 1
30 1
31 1
32 1
33 1
34 1
35 1
36 1
37 1
38 1
39 1
40 1
41 1
42 1
43 1
44 1
45 1
46 1
47 1
48 1
49 1
50 1
51 1
52 1
53 1
54 1
55 1
56 1
57 1
58 1
59 1
60 1
61 1
62 1
63 1
64 1
65 1
66 1
67 1
68 1
69 1
70 1
71 1
72 1
73 1
74 1
75 1
76 1
77 1
78 1
79 1
80 1
81 1
82 1
83 1
84 1
85 1
86 1
87 1
88 1
89 1
90 1
91 1
92 1
93 1
94 1
95 1
96 1
97 1
98 1
99 1
100 1
101 1
102 1
103 1
104 1
105 1
106 1
107 1
108 1
109 1
110 1
111 1
112 1
113 1
114 1
115 1
116 1
117 1
118 1
119 1
120 1
121 1
122 1
123 1
124 1
125 1
126 1
127 1
128 1
129 1
130 1
131 1
132 1
133 1
134 1
135 1
136 1
137 1
138 1
139 1
140 1
141 1
142 1
143 1
144 1
145 1
146 1
147 1
148 1
149 1
150 1
151 1
152 1
153 1
154 1
155 1
156 1
157 1
DEPOT_SECTION
1
-1
EOF
